UFFLP version 2.0 over Coin-Cbc 2.4 by Artur Alves Pessoa
Clp0033I Presolve took 0.00 seconds (total 0.00)
Clp0031I Matrix can not be converted into +- 1
Clp1001I Initial range of elements is 1 to 4400
Clp1003I Final range of elements is 0.2766 to 3.61533
Clp0022I Absolute values of scaled rhs range from 2.37137 to 2.85385, minimum gap 1e+100
Clp0020I Absolute values of scaled objective range from 103.176 to 103.176
Clp0021I Absolute values of scaled bounds range from 0.690024 to 48.4609, minimum gap 0.690024
Clp0006I 0  Obj 0 Primal inf 84.844 (32)
Clp0006I 49  Obj 2.07334e-17
Clp0000I Optimal - objective value 0
Clp0033I Dual took 0.00 seconds (total 0.00)
Clp0032I Optimal objective 0 - 49 iterations time 0.002
Cgl0003I 0 fixed, 0 tightened bounds, 187 strengthened rows, 0 substitutions
Cgl0003I 0 fixed, 0 tightened bounds, 187 strengthened rows, 0 substitutions
Cgl0003I 0 fixed, 0 tightened bounds, 187 strengthened rows, 0 substitutions
Cgl0003I 0 fixed, 0 tightened bounds, 187 strengthened rows, 0 substitutions
Cgl0003I 0 fixed, 0 tightened bounds, 187 strengthened rows, 0 substitutions
Cgl0003I 0 fixed, 0 tightened bounds, 187 strengthened rows, 0 substitutions
Cgl0003I 0 fixed, 0 tightened bounds, 185 strengthened rows, 0 substitutions
Cgl0003I 0 fixed, 0 tightened bounds, 152 strengthened rows, 0 substitutions
Cgl0003I 0 fixed, 0 tightened bounds, 138 strengthened rows, 0 substitutions
Cgl0003I 0 fixed, 0 tightened bounds, 132 strengthened rows, 0 substitutions
Cgl0004I processed model has 219 rows, 497 columns (496 integer) and 2908 elements
Cbc0009I Objective coefficients multiple of 1
Cbc0046I Root node pass 1, 219 rows, 0 total tight cuts  -  objective 0
Cbc0046I Root node pass 2, 225 rows, 6 total tight cuts  -  objective 0
Cbc0046I Root node pass 3, 228 rows, 9 total tight cuts  -  objective 0
Cbc0031I 9 added rows had average density of 171.111
Cbc0013I At root node, 9 cuts changed objective from 0 to 0 in 3 passes
Cbc0014I Cut generator 0 (UFFLP_User) - 0 row cuts average 0.0 elements, 0 column cuts (0 active)
Cbc0014I Cut generator 1 (Probing) - 0 row cuts average 0.0 elements, 0 column cuts (0 active)  in 0.011 seconds - new frequency is 1
Cbc0014I Cut generator 2 (Gomory) - 14 row cuts average 227.5 elements, 0 column cuts (6 active)  in 0.001 seconds - new frequency is 1
Cbc0014I Cut generator 3 (Knapsack) - 0 row cuts average 0.0 elements, 0 column cuts (0 active)  in 0.001 seconds - new frequency is 1000
Cbc0014I Cut generator 4 (Clique) - 4 row cuts average 3.0 elements, 0 column cuts (3 active)  in 0.000 seconds - new frequency is 1
Cbc0014I Cut generator 5 (FlowCover) - 0 row cuts average 0.0 elements, 0 column cuts (0 active)  in 0.000 seconds - new frequency is 1000
Cbc0014I Cut generator 6 (MixedIntegerRounding2) - 0 row cuts average 0.0 elements, 0 column cuts (0 active)  in 0.001 seconds - new frequency is 1000
Cbc0016I Integer solution of 0 found by strong branching after 48 iterations and 0 nodes (0.30 seconds)
Cbc0001I Search completed - best objective 0, took 48 iterations and 0 nodes (0.30 seconds)
Cbc0032I Strong branching done 38 times (1276 iterations), fathomed 1 nodes and fixed 0 variables
Cbc0035I Maximum depth 0, 0 variables fixed on reduced cost
